NAME : berlin52-C-5-1-a.8811.tour
COMMENT : Length = 8811
COMMENT : Found by LKH-3 [Keld Helsgaun] Tue Jul 30 13:14:05 2024
TYPE : TOUR
DIMENSION : 52
TOUR_SECTION
1
5
6
33
51
12
11
52
14
13
47
26
27
28
25
46
44
16
29
50
20
23
30
2
7
42
21
17
18
31
22
32
49
36
35
34
39
40
37
38
48
24
15
4
43
10
9
8
41
19
45
3
-1
EOF
